3978379801962690169508,2,1,2,015,8,1,2,03,13,1,2,02,13,1,2,013,7,1,2,02,12,1,2,015,13,1,2,011,2,1,2,08,15,1,2,01,11,1,2,013,1,1,2,011,8,1,2,015,8,1,2,07,12,1,2,07,7,1,2,05,7,1,2,02,5,1,2,02,1,1,2,08,4,1,2,012,11,1,2,014,5,1,2,02,7,1,2,07,14,1,2,02,10,1,2,08,14,1,2,06,5,1,2,014,14,1,2,012,13,1,2,08,6,1,2,02,15,1,2,05,1,1,2,04,8,1,2,07,15,1,2,015,3,1,2,011,6,1,2,01,9,1,2,01,3,1,2,013,8,1,2,015,14,1,2,010,9,1,2,02,3,1,2,04,10,1,2,011,8,1,2,013,4,1,2,04,7,1,2,05,6,1,2,015,6,1,2,013,10,1,2,011,15,1,2,010,9,1,2,0